VACCINE = Vaccine(1..3);
m = 24;
age = [CHILD, YOUTH, SENIOR, ANCIENT, ADULT, AGED, SENIOR, ANCIENT, YOUTH, BABY, CHILD, ADULT, ADULT, YOUTH, ADULT, YOUTH, BABY, YOUTH, AGED, SENIOR, YOUTH, BABY, ANCIENT, BABY];
gender = [OTHER, OTHER, FEMALE, MALE, OTHER, MALE, FEMALE, MALE, OTHER, MALE, FEMALE, MALE, OTHER, FEMALE, MALE, FEMALE, MALE, FEMALE, OTHER, FEMALE, MALE, OTHER, OTHER, OTHER];
health = [GOOD, COMPROMISED, POOR, GOOD, GOOD, POOR, GOOD, POOR, COMPROMISED, POOR, COMPROMISED, GOOD, COMPROMISED, POOR, POOR, POOR, POOR, GOOD, POOR, GOOD, COMPROMISED, POOR, COMPROMISED, POOR];
exposure = [AVERAGE, AVERAGE, LOW, HIGH, HIGH, HIGH, HIGH, LOW, LOW, HIGH, AVERAGE, AVERAGE, AVERAGE, AVERAGE, LOW, LOW, AVERAGE, EXTREME, AVERAGE, EXTREME, EXTREME, EXTREME, EXTREME, EXTREME];
size = [13, 13, 14, 12, 13, 12, 10, 10, 9, 9, 13, 11, 14, 10, 12, 10, 14, 10, 11, 12, 14, 13, 14, 14];
minsize = 9;
age_group_min = [0, 0, 1, 0, 0, 0, 1];
age_group_max = [12, 19, 23, 14, 19, 9, 21];
max_people_diff = 123;
max_share_vaccines = 3;
health_information = {7, 9, 17};
exposure_information = {6, 9, 16, 18};